WARNING: for repeatability, setting FPU to use double precision
============================[ Problem Statistics ]=============================
|                                                                             |
|  Number of variables:           100                                         |
|  Number of clauses:             449                                         |
|  Parse time:                   0.00 s                                       |
|  Eliminated clauses:           0.00 Mb                                      |
|  Simplification time:          0.00 s                                       |
|                                                                             |
============================[ Search Statistics ]==============================
| Conflicts |          ORIGINAL         |          LEARNT          | Progress |
|           |    Vars  Clauses Literals |    Limit  Clauses Lit/Cl |          |
===============================================================================
|       100 |      96      444     1348 |      162       99      5 |  1.000 % |
===============================================================================
restarts              : 2
conflicts             : 191            (67947 /sec)
decisions             : 235            (0.00 % random) (83600 /sec)
propagations          : 4102           (1459267 /sec)
conflict literals     : 986            (20.68 % deleted)
Memory used           : 13.00 MB
CPU time              : 0.002811 s

SATISFIABLE
